4
7 481 482 485 491 499 501 477
2 440 477
37 482 499 442 478 479 484 486 487 490 496 498 502 503 505 506 507 508 509 510 511 512 513 514 515 516 517 519 520 521 522 523 524 525 526 527 528 529
54 364 369 370 373 379 383 392 393 394 395 399 406 411 417 427 430 432 439 441 444 446 448 449 453 454 455 457 458 460 461 462 466 467 468 469 473 476 480 483 489 492 493 494 495 497 500 504 518 530 531 481 485 491 501
10
